# Solution for model GasLib-40
# Objective value = 4.8323660761099617e+01
loadshed[innode_1] 0
loadshed[innode_2] 0
loadshed[innode_3] 0
loadshed[innode_4] 0
loadshed[innode_5] 0
loadshed[innode_6] 0
loadshed[innode_7] 0
loadshed[innode_8] 0
loadshed[source_1] -1.2411483093391285e-01
loadshed[source_2] 3.8019533461506994e-02
loadshed[source_3] 3.9176659769624944e-01
loadshed[sink_1] 7.1174484530114990e-02
loadshed[sink_2] 0
loadshed[sink_3] 0
loadshed[sink_4] 0
loadshed[sink_5] 0
loadshed[sink_6] 0
loadshed[sink_7] 0
loadshed[sink_8] 0
loadshed[sink_9] 0
loadshed[sink_10] 0
loadshed[sink_11] 0
loadshed[sink_12] 1
loadshed[sink_13] 0
loadshed[sink_14] 0
loadshed[sink_15] 0
loadshed[sink_16] 0
loadshed[sink_17] 0
loadshed[sink_18] 0
loadshed[sink_19] 0
loadshed[sink_20] 0
loadshed[sink_21] 1
loadshed[sink_22] 0
loadshed[sink_23] 0
loadshed[sink_24] 8.8364808430145336e-01
loadshed[sink_25] 0
loadshed[sink_26] 0
loadshed[sink_27] 0
loadshed[sink_28] 0
loadshed[sink_29] 0
flow[source_1,sink_3] 177.711625876462
flow[innode_1,sink_16] 1.6354166666666970e+01
flow[innode_6,sink_13] 1.8323379142757460e+01
flow[sink_13,sink_14] 1.9692124760907923e+00
flow[sink_14,sink_10] -1.4384954190575627e+01
flow[sink_25,sink_26] 0
flow[sink_26,sink_9] 66.7545385879043
flow[sink_9,sink_18] 5.0400371921237635e+01
flow[sink_26,sink_4] -8.3108705254570978e+01
flow[sink_4,sink_20] -1.0313964060074693e+02
flow[sink_18,sink_6] 3.4046205254570964e+01
flow[sink_25,innode_8] -1.4500329254312561e+02
flow[sink_6,sink_7] -1.3852295363009461e+01
flow[sink_6,sink_22] 3.1544333950913746e+01
flow[sink_7,sink_24] 1.9028386213199786e+00
flow[sink_22,sink_1] 1.5190167284247080e+01
flow[sink_24,sink_21] 0
flow[sink_21,sink_12] 0
flow[sink_7,sink_5] -32.1093006509961
flow[sink_5,sink_17] -4.8463467317662776e+01
flow[sink_17,sink_4] -3.6767686795091663e+00
flow[sink_17,sink_8] -6.1140865304820295e+01
flow[sink_3,sink_23] 16.3541666666697
flow[sink_8,sink_20] -7.7495031971486924e+01
flow[sink_25,sink_20] 1.9698883923890057e+02
flow[sink_25,sink_15] -8.6663092505198733e+01
flow[sink_15,sink_29] -5.8040746067055068e+01
flow[sink_29,sink_28] 1.6354166666667879e+01
flow[sink_29,sink_2] 6.1330679771476980e+01
flow[sink_2,sink_15] 4.4976513104810351e+01
flow[sink_29,innode_7] -1.5207975917186661e+02
flow[innode_4,sink_19] 9.6155787523922783e+01
flow[sink_19,innode_3] 3.0962089833442757e+01
flow[innode_4,innode_5] 0
flow[sink_27,innode_5] 0
flow[sink_27,sink_19] -1.6354166666679703e+01
flow[sink_10,sink_11] 3.2708333333333641e+01
flow[sink_10,innode_2] -3.2485364357133676e+01
flow[sink_10,innode_3] -3.0962089833442757e+01
flow[innode_6,sink_25] -1.8323379142757460e+01
flow[sink_11,innode_1] 1.6354166666666970e+01
flow[sink_19,innode_2] 3.2485364357133676e+01
flow[source_3,innode_4] 9.6155787523922783e+01
flow[source_2,innode_7] 1.5207975917186661e+02
flow[sink_3,innode_8] 1.4500329254312561e+02
pressure[innode_1] 7.5249047058235817e+01
pressure[innode_2] 7.7117734041062860e+01
pressure[innode_3] 7.7049171999203040e+01
pressure[innode_4] 81.01325
pressure[innode_5] 81.01325
pressure[innode_6] 7.4824898031759687e+01
pressure[innode_7] 81.01325
pressure[innode_8] 8.0419227922996754e+01
pressure[source_1] 81.01325
pressure[source_2] 81.01325
pressure[source_3] 81.01325
pressure[sink_1] 1.0132500000000002e+00
pressure[sink_2] 7.5392136879442873e+01
pressure[sink_3] 8.0419227922996754e+01
pressure[sink_4] 2.0296557470695920e+01
pressure[sink_5] 1.6545865484372438e+01
pressure[sink_6] 3.0016994422657226e+00
pressure[sink_7] 3.1918584387251467e+00
pressure[sink_8] 2.2463047183548035e+01
pressure[sink_9] 5.73447016649084
pressure[sink_10] 7.5400748365839362e+01
pressure[sink_11] 7.5249047058235817e+01
pressure[sink_12] 1.01325
pressure[sink_13] 7.4723884304666782e+01
pressure[sink_14] 7.4720360231201013e+01
pressure[sink_15] 7.5245298476819485e+01
pressure[sink_16] 7.4227397223418137e+01
pressure[sink_17] 2.0156043495535037e+01
pressure[sink_18] 3.9108344914373729e+00
pressure[sink_19] 7.7117734041062860e+01
pressure[sink_20] 2.7863361078321681e+01
pressure[sink_21] 1.01325
pressure[sink_22] 2.0013059219888318e+00
pressure[sink_23] 8.0254509911336967e+01
pressure[sink_24] 1.01325
pressure[sink_25] 7.4824898031759687e+01
pressure[sink_26] 9.7299015896983558e+00
pressure[sink_27] 7.6766604043919358e+01
pressure[sink_28] 7.6650429940307475e+01
pressure[sink_29] 7.6945712213924651e+01
interdiction[source_1,sink_3] 0
interdiction[innode_1,sink_16] 0
interdiction[innode_6,sink_13] 0
interdiction[sink_13,sink_14] 0
interdiction[sink_14,sink_10] 0
interdiction[sink_25,sink_26] 1
interdiction[sink_26,sink_9] 0
interdiction[sink_9,sink_18] 0
interdiction[sink_26,sink_4] 0
interdiction[sink_4,sink_20] 0
interdiction[sink_18,sink_6] 0
interdiction[sink_25,innode_8] 0
interdiction[sink_6,sink_7] 0
interdiction[sink_6,sink_22] 0
interdiction[sink_7,sink_24] 0
interdiction[sink_22,sink_1] 0
interdiction[sink_24,sink_21] 0
interdiction[sink_21,sink_12] 0
interdiction[sink_7,sink_5] 0
interdiction[sink_5,sink_17] 0
interdiction[sink_17,sink_4] 0
interdiction[sink_17,sink_8] 0
interdiction[sink_3,sink_23] 0
interdiction[sink_8,sink_20] 0
interdiction[sink_25,sink_20] 0
interdiction[sink_25,sink_15] 0
interdiction[sink_15,sink_29] 0
interdiction[sink_29,sink_28] 0
interdiction[sink_29,sink_2] 0
interdiction[sink_2,sink_15] 0
interdiction[sink_29,innode_7] 0
interdiction[innode_4,sink_19] 0
interdiction[sink_19,innode_3] 0
interdiction[innode_4,innode_5] 0
interdiction[sink_27,innode_5] 1
interdiction[sink_27,sink_19] 0
interdiction[sink_10,sink_11] 0
interdiction[sink_10,innode_2] 0
interdiction[sink_10,innode_3] 0
interdiction[innode_6,sink_25] 0
interdiction[sink_11,innode_1] 0
interdiction[sink_19,innode_2] 0
interdiction[source_3,innode_4] 0
interdiction[source_2,innode_7] 0
interdiction[sink_3,innode_8] 0
WCcheckFlow[source_1,sink_3] 39
WCcheckFlow[innode_1,sink_16] 1
WCcheckFlow[innode_6,sink_13] 13
WCcheckFlow[sink_13,sink_14] 12
WCcheckFlow[sink_14,sink_10] 11
WCcheckFlow[sink_25,sink_26] 0
WCcheckFlow[sink_26,sink_9] 12
WCcheckFlow[sink_9,sink_18] 11
WCcheckFlow[sink_26,sink_4] -13
WCcheckFlow[sink_4,sink_20] -14
WCcheckFlow[sink_18,sink_6] 10
WCcheckFlow[sink_25,innode_8] -36
WCcheckFlow[sink_6,sink_7] 7
WCcheckFlow[sink_6,sink_22] 2
WCcheckFlow[sink_7,sink_24] 3
WCcheckFlow[sink_22,sink_1] 1
WCcheckFlow[sink_24,sink_21] 2
WCcheckFlow[sink_21,sink_12] 1
WCcheckFlow[sink_7,sink_5] 3
WCcheckFlow[sink_5,sink_17] 2
WCcheckFlow[sink_17,sink_4] 0
WCcheckFlow[sink_17,sink_8] 1
WCcheckFlow[sink_3,sink_23] 1
WCcheckFlow[sink_8,sink_20] 0
WCcheckFlow[sink_25,sink_20] 15
WCcheckFlow[sink_25,sink_15] 6
WCcheckFlow[sink_15,sink_29] 5
WCcheckFlow[sink_29,sink_28] 1
WCcheckFlow[sink_29,sink_2] 1
WCcheckFlow[sink_2,sink_15] 0
WCcheckFlow[sink_29,innode_7] 2
WCcheckFlow[innode_4,sink_19] -3
WCcheckFlow[sink_19,innode_3] -5
WCcheckFlow[innode_4,innode_5] 1
WCcheckFlow[sink_27,innode_5] 0
WCcheckFlow[sink_27,sink_19] -1
WCcheckFlow[sink_10,sink_11] 3
WCcheckFlow[sink_10,innode_2] 1
WCcheckFlow[sink_10,innode_3] 6
WCcheckFlow[innode_6,sink_25] -14
WCcheckFlow[sink_11,innode_1] 2
WCcheckFlow[sink_19,innode_2] 0
WCcheckFlow[source_3,innode_4] -1
WCcheckFlow[source_2,innode_7] -1
WCcheckFlow[sink_3,innode_8] 37
